9,1,2,1,5,2,8,2,4,3,10,2,7,2,1,1,6,7,3,2;4,1,6,2,9,2,5,3,10,1,7,1,3,1,2,6,8,3,1,2;8,1,4,2,9,5,1,3;6,4,5,5,2,5,3,3,1,4,8,10;2,3,5,6,4,4,8,5,1,5,9,9,10,9,7,10,6,9,3,10;6,3,5,4,9,4,7,6,8,4,2,8,10,7,1,6,3,6,4,10;10,4,9,7,7,5,4,5,2,7,6,8,8,6,1,7,3,8,5,10;5,8,9,8,4,7,7,9,2,9,3,7,1,8,8,9,10,10,6,10;6,5,5,7,10,5,4,6,7,8,3,5,8,7,9,10,2,10,1,9;2,4,6,6,9,6,5,9,7,7,10,6,8,8,4,9,3,9,1,10;9,3,7,3,10,8,4,8;6,1,5,1,2,2,10,3,7,4,3,4;
